
Gurobi 9.0.2 (win64, .NET) logging started Wed Oct  7 23:22:44 2020

Academic license - for non-commercial use only
Gurobi Optimizer version 9.0.2 build v9.0.2rc0 (win64)
Optimize a model with 115 rows, 912 columns and 3621 nonzeros
Model fingerprint: 0xda58c724
Variable types: 0 continuous, 912 integer (912 binary)
Coefficient statistics:
  Matrix range     [1e+00, 1e+02]
  Objective range  [2e+00, 1e+03]
  Bounds range     [1e+00, 1e+00]
  RHS range        [1e+00, 3e+00]
Found heuristic solution: objective 48465.564296
Presolve removed 4 rows and 1 columns
Presolve time: 0.02s
Presolved: 111 rows, 911 columns, 2711 nonzeros
Variable types: 0 continuous, 911 integer (911 binary)

Root relaxation: objective 2.898748e+04, 132 iterations, 0.02 seconds

    Nodes    |    Current Node    |     Objective Bounds      |     Work
 Expl Unexpl |  Obj  Depth IntInf | Incumbent    BestBd   Gap | It/Node Time

     0     0 28987.4814    0    6 48465.5643 28987.4814  40.2%     -    0s
H    0     0                    31118.745427 28987.4814  6.85%     -    0s
H    0     0                    30987.481355 28987.4814  6.45%     -    0s
     0     0 28987.4814    0   50 30987.4814 28987.4814  6.45%     -    0s
     0     0 28987.4814    0    7 30987.4814 28987.4814  6.45%     -    0s
     0     2 28987.4814    0    7 30987.4814 28987.4814  6.45%     -    0s

Cutting planes:
  Cover: 2
  Clique: 61
  MIR: 1

Explored 50 nodes (1258 simplex iterations) in 0.19 seconds
Thread count was 4 (of 4 available processors)

Solution count 3: 30987.5 31118.7 48465.6 

Optimal solution found (tolerance 1.00e-04)
Best objective 3.098748135474e+04, best bound 3.098748135474e+04, gap 0.0000%
